% clingo version 5.6.2
% Reading from random_s10_a15_c50.lp ...
% Solving...
% Answer: 1
%ANSWER
init(object(shelf,1),value(at,(9,3))). init(object(shelf,2),value(at,(5,5))). init(object(shelf,3),value(at,(4,3))). init(object(shelf,4),value(at,(10,1))). init(object(shelf,5),value(at,(10,8))). init(object(shelf,6),value(at,(2,8))). init(object(shelf,7),value(at,(1,7))). init(object(shelf,8),value(at,(4,10))). init(object(shelf,9),value(at,(3,3))). init(object(shelf,10),value(at,(1,6))). init(object(shelf,11),value(at,(2,10))). init(object(shelf,12),value(at,(2,9))). init(object(shelf,13),value(at,(6,5))). init(object(shelf,14),value(at,(1,8))). init(object(shelf,15),value(at,(6,3))). init(object(robot,1),value(at,(9,10))). init(object(robot,2),value(at,(6,9))). init(object(robot,3),value(at,(2,8))). init(object(robot,4),value(at,(1,10))). init(object(robot,5),value(at,(4,3))). init(object(robot,6),value(at,(8,8))). init(object(robot,7),value(at,(3,3))). init(object(robot,8),value(at,(6,3))). init(object(robot,9),value(at,(1,8))). init(object(robot,10),value(at,(2,10))). init(object(robot,11),value(at,(1,6))). init(object(robot,12),value(at,(6,5))). init(object(robot,13),value(at,(7,1))). init(object(robot,14),value(at,(5,10))). init(object(robot,15),value(at,(4,6))). init(object(node,1),value(at,(1,6))). init(object(node,1),value(at,(1,7))). init(object(node,1),value(at,(1,8))). init(object(node,1),value(at,(2,8))). init(object(node,1),value(at,(2,9))). init(object(node,1),value(at,(1,10))). init(object(node,1),value(at,(2,10))). init(object(node,1),value(at,(3,3))). init(object(node,1),value(at,(3,4))). init(object(node,1),value(at,(3,5))). init(object(node,1),value(at,(3,9))). init(object(node,1),value(at,(4,3))). init(object(node,1),value(at,(4,6))). init(object(node,1),value(at,(4,7))). init(object(node,1),value(at,(4,8))). init(object(node,1),value(at,(4,9))). init(object(node,1),value(at,(4,10))). init(object(node,1),value(at,(5,3))). init(object(node,1),value(at,(5,5))). init(object(node,1),value(at,(5,8))). init(object(node,1),value(at,(5,10))). init(object(node,1),value(at,(6,1))). init(object(node,1),value(at,(6,2))). init(object(node,1),value(at,(6,3))). init(object(node,1),value(at,(6,4))). init(object(node,1),value(at,(6,5))). init(object(node,1),value(at,(6,8))). init(object(node,1),value(at,(6,9))). init(object(node,1),value(at,(7,1))). init(object(node,1),value(at,(7,2))). init(object(node,1),value(at,(7,5))). init(object(node,1),value(at,(7,9))). init(object(node,1),value(at,(8,2))). init(object(node,1),value(at,(8,7))). init(object(node,1),value(at,(8,8))). init(object(node,1),value(at,(8,9))). init(object(node,1),value(at,(8,10))). init(object(node,1),value(at,(9,1))). init(object(node,1),value(at,(9,2))). init(object(node,1),value(at,(9,3))). init(object(node,1),value(at,(9,4))). init(object(node,1),value(at,(9,7))). init(object(node,1),value(at,(9,10))). init(object(node,1),value(at,(10,1))). init(object(node,1),value(at,(10,4))). init(object(node,1),value(at,(10,5))). init(object(node,1),value(at,(10,6))). init(object(node,1),value(at,(10,7))). init(object(node,1),value(at,(10,8))). init(object(node,1),value(at,(10,9))).
% 
% Models         : 1
% Calls          : 1
% Time           : 0.010s (Solving: 0.00s 1st Model: 0.00s Unsat: 0.00s)
% CPU Time       : 0.000s
